param N := 5;  # number of rows and columns of the map
param MAP :  1 2 3 4 5 :=
         1   0 0 0 1 0 
         2   1 0 0 1 1 
         3   0 1 0 1 0 
         4   1 1 1 0 1 
         5   1 0 0 1 0 ;

end;
